nbTeams = 14;
pv = [|
0, 0, 1, 1, 0, 0, 1, 0, 0, 0, 1, 1, 1, 1|
1, 0, 1, 1, 1, 0, 0, 1, 1, 1, 0, 1, 0, 1|
0, 0, 0, 0, 1, 0, 0, 1, 0, 1, 0, 1, 1, 0|
0, 0, 1, 0, 0, 0, 1, 1, 0, 0, 1, 1, 1, 0|
1, 0, 0, 1, 0, 1, 0, 1, 1, 0, 0, 0, 1, 0|
1, 1, 1, 1, 0, 0, 1, 1, 1, 0, 1, 1, 0, 0|
0, 1, 1, 0, 1, 0, 0, 0, 0, 1, 1, 0, 1, 1|
1, 0, 0, 0, 0, 0, 1, 0, 0, 0, 0, 0, 1, 0|
1, 0, 1, 1, 0, 0, 1, 1, 0, 1, 1, 0, 1, 0|
1, 0, 0, 1, 1, 1, 0, 1, 0, 0, 0, 1, 0, 1|
0, 1, 1, 0, 1, 0, 0, 1, 0, 1, 0, 0, 0, 0|
0, 0, 0, 0, 1, 0, 1, 1, 1, 0, 1, 0, 0, 0|
0, 1, 0, 0, 0, 1, 0, 0, 0, 1, 1, 1, 0, 0|
0, 0, 1, 1, 1, 1, 0, 1, 1, 0, 1, 1, 1, 0|];

% location[i,j] = 1 if i faces j at home 
% location[i,j] = 0 if i faces j away